c This Formular is generated by mcnf
c
c    horn? no 
c    forced? no 
c    mixed sat? no 
c    clause length = 3 
c
p cnf 20  91 
 7 -8 -12 0
-5 -19 -6 0
-18 2 -5 0
3 -7 -2 0
1 -16 5 0
8 6 16 0
-12 2 5 0
15 -9 19 0
9 -19 4 0
19 -5 17 0
18 -19 5 0
-15 -16 -1 0
8 12 -14 0
18 8 19 0
19 -7 -16 0
18 17 2 0
-16 -3 10 0
-3 -12 -19 0
-10 7 -12 0
10 6 -1 0
2 4 16 0
%
0

27 47 5 79 1 93 62 1 16 24 47 27 17 89 67 47 100 84 12 35
